Assets/LKHProbs~/bomb.16.tsp
NAME : GeneratedProblem
COMMENT : SVGCrosshatch
TYPE : TSP
DIMENSION : 9
EDGE_WEIGHT_TYPE : EUC_2D
NODE_COORD_SECTION
1 1400 10100
2 1400 10200
3 1400 10300
4 1500 9900
5 1500 10000
6 1500 10400
7 1800 10100
8 1800 10400
9 2100 10400
EOF
